c nIsolatedPIs 0
c maxPI 32
p cnf 245 640
c gate 33 -14 -30 0
-14 -33 0
-30 -33 0
14 30 33 0
c gate 34 14 30 0
14 -34 0
30 -34 0
-14 -30 34 0
c gate 35 -33 -34 0
-33 -35 0
-34 -35 0
33 34 35 0
c gate 36 12 28 0
12 -36 0
28 -36 0
-12 -28 36 0
c gate 37 13 29 0
13 -37 0
29 -37 0
-13 -29 37 0
c gate 38 -36 -37 0
-36 -38 0
-37 -38 0
36 37 38 0
c gate 39 35 38 0
35 -39 0
38 -39 0
-35 -38 39 0
c gate 40 -35 -38 0
-35 -40 0
-38 -40 0
35 38 40 0
c gate 41 -39 -40 0
-39 -41 0
-40 -41 0
39 40 41 0
c gate 42 -13 -29 0
-13 -42 0
-29 -42 0
13 29 42 0
c gate 43 -12 -28 0
-12 -43 0
-28 -43 0
12 28 43 0
c gate 44 -11 -27 0
-11 -44 0
-27 -44 0
11 27 44 0
c gate 45 11 27 0
11 -45 0
27 -45 0
-11 -27 45 0
c gate 46 -10 -26 0
-10 -46 0
-26 -46 0
10 26 46 0
c gate 47 10 26 0
10 -47 0
26 -47 0
-10 -26 47 0
c gate 48 9 25 0
9 -48 0
25 -48 0
-9 -25 48 0
c gate 49 -47 -48 0
-47 -49 0
-48 -49 0
47 48 49 0
c gate 50 8 24 0
8 -50 0
24 -50 0
-8 -24 50 0
c gate 51 -8 -24 0
-8 -51 0
-24 -51 0
8 24 51 0
c gate 52 -50 -51 0
-50 -52 0
-51 -52 0
50 51 52 0
c gate 53 -7 -23 0
-7 -53 0
-23 -53 0
7 23 53 0
c gate 54 7 23 0
7 -54 0
23 -54 0
-7 -23 54 0
c gate 55 -53 -54 0
-53 -55 0
-54 -55 0
53 54 55 0
c gate 56 -6 -22 0
-6 -56 0
-22 -56 0
6 22 56 0
c gate 57 -5 -21 0
-5 -57 0
-21 -57 0
5 21 57 0
c gate 58 -4 -20 0
-4 -58 0
-20 -58 0
4 20 58 0
c gate 59 -57 -58 0
-57 -59 0
-58 -59 0
57 58 59 0
c gate 60 1 17 0
1 -60 0
17 -60 0
-1 -17 60 0
c gate 61 2 18 0
2 -61 0
18 -61 0
-2 -18 61 0
c gate 62 -60 -61 0
-60 -62 0
-61 -62 0
60 61 62 0
c gate 63 -3 19 0
-3 -63 0
19 -63 0
3 -19 63 0
c gate 64 3 -19 0
3 -64 0
-19 -64 0
-3 19 64 0
c gate 65 -63 -64 0
-63 -65 0
-64 -65 0
63 64 65 0
c gate 66 -2 -18 0
-2 -66 0
-18 -66 0
2 18 66 0
c gate 67 -65 -66 0
-65 -67 0
-66 -67 0
65 66 67 0
c gate 68 -62 67 0
-62 -68 0
67 -68 0
62 -67 68 0
c gate 69 3 19 0
3 -69 0
19 -69 0
-3 -19 69 0
c gate 70 4 20 0
4 -70 0
20 -70 0
-4 -20 70 0
c gate 71 -69 -70 0
-69 -71 0
-70 -71 0
69 70 71 0
c gate 72 -68 71 0
-68 -72 0
71 -72 0
68 -71 72 0
c gate 73 59 -72 0
59 -73 0
-72 -73 0
-59 72 73 0
c gate 74 6 22 0
6 -74 0
22 -74 0
-6 -22 74 0
c gate 75 -56 -74 0
-56 -75 0
-74 -75 0
56 74 75 0
c gate 76 5 21 0
5 -76 0
21 -76 0
-5 -21 76 0
c gate 77 75 -76 0
75 -77 0
-76 -77 0
-75 76 77 0
c gate 78 -73 77 0
-73 -78 0
77 -78 0
73 -77 78 0
c gate 79 -56 -78 0
-56 -79 0
-78 -79 0
56 78 79 0
c gate 80 55 -79 0
55 -80 0
-79 -80 0
-55 79 80 0
c gate 81 52 80 0
52 -81 0
80 -81 0
-52 -80 81 0
c gate 82 -50 53 0
-50 -82 0
53 -82 0
50 -53 82 0
c gate 83 -9 -25 0
-9 -83 0
-25 -83 0
9 25 83 0
c gate 84 -51 -83 0
-51 -84 0
-83 -84 0
51 83 84 0
c gate 85 -82 84 0
-82 -85 0
84 -85 0
82 -84 85 0
c gate 86 -81 85 0
-81 -86 0
85 -86 0
81 -85 86 0
c gate 87 49 -86 0
49 -87 0
-86 -87 0
-49 86 87 0
c gate 88 -46 -87 0
-46 -88 0
-87 -88 0
46 87 88 0
c gate 89 -45 -88 0
-45 -89 0
-88 -89 0
45 88 89 0
c gate 90 -44 -89 0
-44 -90 0
-89 -90 0
44 89 90 0
c gate 91 -36 -90 0
-36 -91 0
-90 -91 0
36 90 91 0
c gate 92 -43 -91 0
-43 -92 0
-91 -92 0
43 91 92 0
c gate 93 -37 -92 0
-37 -93 0
-92 -93 0
37 92 93 0
c gate 94 -42 -93 0
-42 -94 0
-93 -94 0
42 93 94 0
c gate 95 35 -94 0
35 -95 0
-94 -95 0
-35 94 95 0
c gate 96 -35 94 0
-35 -96 0
94 -96 0
35 -94 96 0
c gate 97 -95 -96 0
-95 -97 0
-96 -97 0
95 96 97 0
c gate 98 41 -97 0
41 -98 0
-97 -98 0
-41 97 98 0
c gate 99 -41 97 0
-41 -99 0
97 -99 0
41 -97 99 0
c gate 100 -98 -99 0
-98 -100 0
-99 -100 0
98 99 100 0
c gate 101 -10 26 0
-10 -101 0
26 -101 0
10 -26 101 0
c gate 102 -9 25 0
-9 -102 0
25 -102 0
9 -25 102 0
c gate 103 8 -24 0
8 -103 0
-24 -103 0
-8 24 103 0
c gate 104 9 -25 0
9 -104 0
-25 -104 0
-9 25 104 0
c gate 105 -103 -104 0
-103 -105 0
-104 -105 0
103 104 105 0
c gate 106 6 -22 0
6 -106 0
-22 -106 0
-6 22 106 0
c gate 107 -2 18 0
-2 -107 0
18 -107 0
2 -18 107 0
c gate 108 -1 17 0
-1 -108 0
17 -108 0
1 -17 108 0
c gate 109 -107 -108 0
-107 -109 0
-108 -109 0
107 108 109 0
c gate 110 2 -18 0
2 -110 0
-18 -110 0
-2 18 110 0
c gate 111 -64 -110 0
-64 -111 0
-110 -111 0
64 110 111 0
c gate 112 -109 111 0
-109 -112 0
111 -112 0
109 -111 112 0
c gate 113 -4 20 0
-4 -113 0
20 -113 0
4 -20 113 0
c gate 114 -63 -113 0
-63 -114 0
-113 -114 0
63 113 114 0
c gate 115 -112 114 0
-112 -115 0
114 -115 0
112 -114 115 0
c gate 116 5 -21 0
5 -116 0
-21 -116 0
-5 21 116 0
c gate 117 4 -20 0
4 -117 0
-20 -117 0
-4 20 117 0
c gate 118 -116 -117 0
-116 -118 0
-117 -118 0
116 117 118 0
c gate 119 -115 118 0
-115 -119 0
118 -119 0
115 -118 119 0
c gate 120 -5 21 0
-5 -120 0
21 -120 0
5 -21 120 0
c gate 121 -75 -120 0
-75 -121 0
-120 -121 0
75 120 121 0
c gate 122 -119 121 0
-119 -122 0
121 -122 0
119 -121 122 0
c gate 123 -106 -122 0
-106 -123 0
-122 -123 0
106 122 123 0
c gate 124 -55 -123 0
-55 -124 0
-123 -124 0
55 123 124 0
c gate 125 7 -23 0
7 -125 0
-23 -125 0
-7 23 125 0
c gate 126 -52 125 0
-52 -126 0
125 -126 0
52 -125 126 0
c gate 127 -124 -126 0
-124 -127 0
-126 -127 0
124 126 127 0
c gate 128 -52 -127 0
-52 -128 0
-127 -128 0
52 127 128 0
c gate 129 105 -128 0
105 -129 0
-128 -129 0
-105 128 129 0
c gate 130 -102 -129 0
-102 -130 0
-129 -130 0
102 129 130 0
c gate 131 10 -26 0
10 -131 0
-26 -131 0
-10 26 131 0
c gate 132 -101 -131 0
-101 -132 0
-131 -132 0
101 131 132 0
c gate 133 -130 132 0
-130 -133 0
132 -133 0
130 -132 133 0
c gate 134 -101 -133 0
-101 -134 0
-133 -134 0
101 133 134 0
c gate 135 -44 -45 0
-44 -135 0
-45 -135 0
44 45 135 0
c gate 136 -11 12 0
-11 -136 0
12 -136 0
11 -12 136 0
c gate 137 -28 136 0
-28 -137 0
136 -137 0
28 -136 137 0
c gate 138 135 -137 0
135 -138 0
-137 -138 0
-135 137 138 0
c gate 139 -36 -43 0
-36 -139 0
-43 -139 0
36 43 139 0
c gate 140 -37 -42 0
-37 -140 0
-42 -140 0
37 42 140 0
c gate 141 -139 -140 0
-139 -141 0
-140 -141 0
139 140 141 0
c gate 142 -138 141 0
-138 -142 0
141 -142 0
138 -141 142 0
c gate 143 -134 142 0
-134 -143 0
142 -143 0
134 -142 143 0
c gate 144 15 31 0
15 -144 0
31 -144 0
-15 -31 144 0
c gate 145 -15 -31 0
-15 -145 0
-31 -145 0
15 31 145 0
c gate 146 -144 -145 0
-144 -146 0
-145 -146 0
144 145 146 0
c gate 147 16 32 0
16 -147 0
32 -147 0
-16 -32 147 0
c gate 148 -16 -32 0
-16 -148 0
-32 -148 0
16 32 148 0
c gate 149 -147 -148 0
-147 -149 0
-148 -149 0
147 148 149 0
c gate 150 -35 -149 0
-35 -150 0
-149 -150 0
35 149 150 0
c gate 151 -146 150 0
-146 -151 0
150 -151 0
146 -150 151 0
c gate 152 143 151 0
143 -152 0
151 -152 0
-143 -151 152 0
c gate 153 143 -152 0
143 -153 0
-152 -153 0
-143 152 153 0
c gate 154 134 135 0
134 -154 0
135 -154 0
-134 -135 154 0
c gate 155 -134 -135 0
-134 -155 0
-135 -155 0
134 135 155 0
c gate 156 -154 -155 0
-154 -156 0
-155 -156 0
154 155 156 0
c gate 157 -105 132 0
-105 -157 0
132 -157 0
105 -132 157 0
c gate 158 -131 -157 0
-131 -158 0
-157 -158 0
131 157 158 0
c gate 159 135 -158 0
135 -159 0
-158 -159 0
-135 158 159 0
c gate 160 -156 -159 0
-156 -160 0
-159 -160 0
156 159 160 0
c gate 161 105 -132 0
105 -161 0
-132 -161 0
-105 132 161 0
c gate 162 -157 -161 0
-157 -162 0
-161 -162 0
157 161 162 0
c gate 163 130 -132 0
130 -163 0
-132 -163 0
-130 132 163 0
c gate 164 -133 -163 0
-133 -164 0
-163 -164 0
133 163 164 0
c gate 165 -162 -164 0
-162 -165 0
-164 -165 0
162 164 165 0
c gate 166 162 164 0
162 -166 0
164 -166 0
-162 -164 166 0
c gate 167 92 -140 0
92 -167 0
-140 -167 0
-92 140 167 0
c gate 168 139 140 0
139 -168 0
140 -168 0
-139 -140 168 0
c gate 169 90 168 0
90 -169 0
168 -169 0
-90 -168 169 0
c gate 170 -167 -169 0
-167 -170 0
-169 -170 0
167 169 170 0
c gate 171 -78 -80 0
-78 -171 0
-80 -171 0
78 80 171 0
c gate 172 60 61 0
60 -172 0
61 -172 0
-60 -61 172 0
c gate 173 171 172 0
171 -173 0
172 -173 0
-171 -172 173 0
c gate 174 -81 -173 0
-81 -174 0
-173 -174 0
81 173 174 0
c gate 175 170 174 0
170 -175 0
174 -175 0
-170 -174 175 0
c gate 176 49 -85 0
49 -176 0
-85 -176 0
-49 85 176 0
c gate 177 -44 -46 0
-44 -177 0
-46 -177 0
44 46 177 0
c gate 178 139 177 0
139 -178 0
177 -178 0
-139 -177 178 0
c gate 179 -176 178 0
-176 -179 0
178 -179 0
176 -178 179 0
c gate 180 -90 179 0
-90 -180 0
179 -180 0
90 -179 180 0
c gate 181 81 -180 0
81 -181 0
-180 -181 0
-81 180 181 0
c gate 182 170 -181 0
170 -182 0
-181 -182 0
-170 181 182 0
c gate 183 -33 -95 0
-33 -183 0
-95 -183 0
33 95 183 0
c gate 184 -144 -183 0
-144 -184 0
-183 -184 0
144 183 184 0
c gate 185 -145 -184 0
-145 -185 0
-184 -185 0
145 184 185 0
c gate 186 149 -185 0
149 -186 0
-185 -186 0
-149 185 186 0
c gate 187 -149 185 0
-149 -187 0
185 -187 0
149 -185 187 0
c gate 188 -186 -187 0
-186 -188 0
-187 -188 0
186 187 188 0
c gate 189 -98 -167 0
-98 -189 0
-167 -189 0
98 167 189 0
c gate 190 -96 -100 0
-96 -190 0
-100 -190 0
96 100 190 0
c gate 191 -189 -190 0
-189 -191 0
-190 -191 0
189 190 191 0
c gate 192 -39 183 0
-39 -192 0
183 -192 0
39 -183 192 0
c gate 193 -146 -183 0
-146 -193 0
-183 -193 0
146 183 193 0
c gate 194 -33 -39 0
-33 -194 0
-39 -194 0
33 39 194 0
c gate 195 146 -194 0
146 -195 0
-194 -195 0
-146 194 195 0
c gate 196 -193 -195 0
-193 -196 0
-195 -196 0
193 195 196 0
c gate 197 -192 196 0
-192 -197 0
196 -197 0
192 -196 197 0
c gate 198 -191 -197 0
-191 -198 0
-197 -198 0
191 197 198 0
c gate 199 -188 -198 0
-188 -199 0
-198 -199 0
188 198 199 0
c gate 200 188 198 0
188 -200 0
198 -200 0
-188 -198 200 0
c gate 201 -145 -195 0
-145 -201 0
-195 -201 0
145 195 201 0
c gate 202 149 -201 0
149 -202 0
-201 -202 0
-149 201 202 0
c gate 203 -149 201 0
-149 -203 0
201 -203 0
149 -201 203 0
c gate 204 -202 -203 0
-202 -204 0
-203 -204 0
202 203 204 0
c gate 205 -200 204 0
-200 -205 0
204 -205 0
200 -204 205 0
c gate 206 -199 -205 0
-199 -206 0
-205 -206 0
199 205 206 0
c gate 207 -182 206 0
-182 -207 0
206 -207 0
182 -206 207 0
c gate 208 -175 -207 0
-175 -208 0
-207 -208 0
175 207 208 0
c gate 209 55 122 0
55 -209 0
122 -209 0
-55 -122 209 0
c gate 210 -124 -209 0
-124 -210 0
-209 -210 0
124 209 210 0
c gate 211 185 202 0
185 -211 0
202 -211 0
-185 -202 211 0
c gate 212 210 -211 0
210 -212 0
-211 -212 0
-210 211 212 0
c gate 213 208 212 0
208 -213 0
212 -213 0
-208 -212 213 0
c gate 214 -147 -202 0
-147 -214 0
-202 -214 0
147 202 214 0
c gate 215 210 214 0
210 -215 0
214 -215 0
-210 -214 215 0
c gate 216 186 215 0
186 -216 0
215 -216 0
-186 -215 216 0
c gate 217 -209 -216 0
-209 -217 0
-216 -217 0
209 216 217 0
c gate 218 -213 217 0
-213 -218 0
217 -218 0
213 -217 218 0
c gate 219 -124 218 0
-124 -219 0
218 -219 0
124 -218 219 0
c gate 220 -128 -219 0
-128 -220 0
-219 -220 0
128 219 220 0
c gate 221 -102 -104 0
-102 -221 0
-104 -221 0
102 104 221 0
c gate 222 128 -221 0
128 -222 0
-221 -222 0
-128 221 222 0
c gate 223 -220 -222 0
-220 -223 0
-222 -223 0
220 222 223 0
c gate 224 -166 -223 0
-166 -224 0
-223 -224 0
166 223 224 0
c gate 225 -165 -224 0
-165 -225 0
-224 -225 0
165 224 225 0
c gate 226 -160 225 0
-160 -226 0
225 -226 0
160 -225 226 0
c gate 227 -134 159 0
-134 -227 0
159 -227 0
134 -159 227 0
c gate 228 -155 -227 0
-155 -228 0
-227 -228 0
155 227 228 0
c gate 229 -226 228 0
-226 -229 0
228 -229 0
226 -228 229 0
c gate 230 -143 -229 0
-143 -230 0
-229 -230 0
143 229 230 0
c gate 231 -153 -230 0
-153 -231 0
-230 -231 0
153 230 231 0
c gate 232 -174 -181 0
-174 -232 0
-181 -232 0
174 181 232 0
c gate 233 -167 -232 0
-167 -233 0
-232 -233 0
167 232 233 0
c gate 234 -169 -233 0
-169 -234 0
-233 -234 0
169 233 234 0
c gate 235 -231 234 0
-231 -235 0
234 -235 0
231 -234 235 0
c gate 236 60 66 0
60 -236 0
66 -236 0
-60 -66 236 0
c gate 237 171 -236 0
171 -237 0
-236 -237 0
-171 236 237 0
c gate 238 -180 -237 0
-180 -238 0
-237 -238 0
180 237 238 0
c gate 239 170 -238 0
170 -239 0
-238 -239 0
-170 238 239 0
c gate 240 -167 -239 0
-167 -240 0
-239 -240 0
167 239 240 0
c gate 241 231 240 0
231 -241 0
240 -241 0
-231 -240 241 0
c gate 242 -235 -241 0
-235 -242 0
-241 -242 0
235 241 242 0
c gate 243 100 242 0
100 -243 0
242 -243 0
-100 -242 243 0
c gate 244 -100 -242 0
-100 -244 0
-242 -244 0
100 242 244 0
c gate 245 -243 -244 0
-243 -245 0
-244 -245 0
243 244 245 0
c PO
245 0
